56016679123430130235015,9,1,2,01,10,1,2,04,1,1,2,01,8,1,2,011,2,1,2,04,10,1,2,04,12,1,2,014,2,1,2,03,6,1,2,07,1,1,2,02,14,1,2,04,8,1,2,09,10,1,2,03,9,1,2,04,10,1,2,06,12,1,2,07,9,1,2,011,4,1,2,07,10,1,2,07,10,1,2,08,13,1,2,010,7,1,2,015,13,1,2,05,14,1,2,015,9,1,2,011,3,1,2,06,9,1,2,05,13,1,2,01,8,1,2,07,7,1,2,09,14,1,2,03,10,1,2,014,9,1,2,06,6,1,2,09,3,1,2,013,13,1,2,09,3,1,2,012,12,1,2,013,13,1,2,01,7,1,2,011,12,1,2,01,5,1,2,011,3,1,2,07,6,1,2,011,12,1,2,09,9,1,2,02,5,1,2,011,12,1,2,015,1,1,2,05,10,1,2,0